Results/Experiment 1 Results/Existing Benchmark/RES_80/i-80-100-11.txt
solutions: 2 nodes: 3  modelTime: 115  solveTime: 22  totalTime: 152  modelSize: 7851  readTime: 15 matchingSize: 40
