Results/Experiment 2 Results/Existing Benchmark/i-80-100-11.lp
clingo version 5.4.0
Reading from tempSRTISolver.lp ...
Solving...
Answer: 1
matched(16,2) matched(75,3) matched(79,4) matched(27,5) matched(47,6) matched(26,7) matched(12,8) matched(74,9) matched(66,10) matched(32,11) matched(8,12) matched(33,13) matched(18,14) matched(22,15) matched(2,16) matched(29,17) matched(14,18) matched(62,19) matched(28,20) matched(60,21) matched(15,22) matched(53,23) matched(56,24) matched(31,25) matched(7,26) matched(5,27) matched(20,28) matched(17,29) matched(71,30) matched(25,31) matched(11,32) matched(13,33) matched(51,34) matched(43,35) matched(49,36) matched(80,37) matched(1,38) matched(65,39) matched(63,40) matched(67,41) matched(68,42) matched(35,43) matched(52,44) matched(57,45) matched(70,46) matched(6,47) matched(61,48) matched(36,49) matched(59,50) matched(34,51) matched(44,52) matched(23,53) matched(69,54) matched(64,55) matched(24,56) matched(45,57) matched(72,58) matched(50,59) matched(21,60) matched(48,61) matched(19,62) matched(40,63) matched(55,64) matched(39,65) matched(10,66) matched(41,67) matched(42,68) matched(54,69) matched(46,70) matched(30,71) matched(58,72) matched(78,73) matched(9,74) matched(3,75) matched(77,76) matched(76,77) matched(73,78) matched(4,79) matched(37,80) matched(38,1)
Optimization: 650
Answer: 2
matched(16,2) matched(75,3) matched(79,4) matched(27,5) matched(47,6) matched(26,7) matched(12,8) matched(74,9) matched(66,10) matched(32,11) matched(8,12) matched(33,13) matched(18,14) matched(22,15) matched(2,16) matched(72,17) matched(14,18) matched(62,19) matched(28,20) matched(60,21) matched(15,22) matched(53,23) matched(56,24) matched(31,25) matched(7,26) matched(5,27) matched(20,28) matched(38,29) matched(71,30) matched(25,31) matched(11,32) matched(13,33) matched(51,34) matched(43,35) matched(49,36) matched(80,37) matched(29,38) matched(65,39) matched(63,40) matched(67,41) matched(68,42) matched(35,43) matched(52,44) matched(57,45) matched(70,46) matched(6,47) matched(61,48) matched(36,49) matched(59,50) matched(34,51) matched(44,52) matched(23,53) matched(69,54) matched(64,55) matched(24,56) matched(45,57) matched(1,58) matched(50,59) matched(21,60) matched(48,61) matched(19,62) matched(40,63) matched(55,64) matched(39,65) matched(10,66) matched(41,67) matched(42,68) matched(54,69) matched(46,70) matched(30,71) matched(17,72) matched(78,73) matched(9,74) matched(3,75) matched(77,76) matched(76,77) matched(73,78) matched(4,79) matched(37,80) matched(58,1)
Optimization: 643
OPTIMUM FOUND

Models       : 2
  Optimum    : yes
Optimization : 643
Calls        : 1
Time         : 28.577s (Solving: 2.01s 1st Model: 0.89s Unsat: 0.50s)
CPU Time     : 28.576s
